8425
43, 33, 12, 28, 27, 26, 47, 13, 14, 52, 11, 51, 25, 46, 50, 20, 23, 21, 42, 7, 2, 30, 29, 16, 44, 1, 22, 31, 18, 17, 3, 41, 8, 9, 10, 19, 45, 32, 49, 36, 35, 34, 39, 40, 37, 38, 48, 24, 5, 15, 6, 4
